### LAMMPS Input File - Merge data files together
# From MDToolkit template file: merge_data.in

## Configuration Variables
# FILL IN {{FIELDS}}

# File name of the LAMMPS data file containing the saline data
variable    SALINE_DATA string {{"file"}}

# File name of the second LAMMPS data file containing the PTFE data
variable    PTFE_DATA string {{"file"}}

## Initialization

units           real
atom_style      full
boundary        p p p
pair_style      lj/cut/coul/long 10 10
pair_modify     mix arithmetic
pair_modify     tail no
special_bonds   amber
bond_style      harmonic
angle_style     harmonic
dihedral_style  opls
improper_style  none

## Read and combine data files

read_data      	${SALINE_DATA} extra/bond/per/atom 2 extra/angle/per/atom 5 extra/dihedral/per/atom 9
read_data      	${PTFE_DATA} add append

## Neighbor parameters and force field coefficients

neighbor        2.0 bin
neigh_modify    delay 0
kspace_style    pppm 1e-5
kspace_modify   order 4

## Write resulting data file

write_data	saline_ptfe_merged.data