### LAMMPS Input File - NVE Equilibration
# From MDToolkit template file: nve.in

## Configuration Variables
# FILL IN {{FIELDS}}
# IF YOU ARE RESTARTING A RUN WITHIN THE SAME DIRECTORY, RENAME YOUR LOG FILES SO THEY DON'T GET OVERWRITTEN

# Is this a restart? (true if starting from a binary restart file, false if starting from a data text file)
variable    IS_RESTART equal {{true/false}}
# File name of the binary restart file or initial data text file
# For restart files, using the * wildcard will find the largest-numbered restart file in the directory (ex: restart_*.rs)
variable    START_DATA string {{"file"}}

# Size of each time step; in "real" units, this is in femtoseconds
variable    TIMESTEP equal {{N}}
# Number of time steps to run; 500k steps == 1 ns if time step size is 2 fs
variable	STEPS equal {{N}}
# Frequency of creating dump files (every N steps); try 1000
variable	DUMP_FREQ equal {{N}}
# Frequency of writing thermo output to the LAMMPS log file (every N steps); try 100
variable	THERMO_FREQ equal {{N}}
# Frequency of writing restart files (every N steps); try ~2 restarts per day of wall time
variable	RESTART_FREQ equal {{N}}

## Initialization

units           real
atom_style      full
boundary        p p p
pair_style      lj/cut/coul/long 10 10
pair_modify     mix arithmetic
pair_modify     tail no
special_bonds   amber
bond_style      harmonic
angle_style     harmonic
dihedral_style  opls
improper_style  none

## Read an initial data file or a restart file

if "${IS_RESTART}" then &
    "read_restart   ${START_DATA}" &
else &
    "read_data      ${START_DATA}"

## Neighbor parameters and force field coefficients

neighbor        2.0 bin
neigh_modify    delay 0
kspace_style    pppm 1e-5
kspace_modify   order 4

## Dump settings

dump            DUMP_TEXT all custom $(v_DUMP_FREQ) dump_*.txt id type x y z
dump_modify     DUMP_TEXT sort id
dump            DUMP_NETCDF all netcdf $(v_DUMP_FREQ) dump_*.nc id type x y z
dump_modify     DUMP_NETCDF sort id

## Restart settings

restart		    $(v_RESTART_FREQ) restart_*.rs

## Constraint for bond lengths

fix 		    SHAKE all shake 1e-5 1000 0 m 1.0

## Thermostatting

fix             NVE_ALL all nve

## Thermodynamic output settings

thermo          $(v_THERMO_FREQ)
thermo_style    custom step time temp pe ke etotal enthalpy press vol density lx ly lz pxx pyy pzz pxy pxz pyz
thermo_modify   lost ignore flush yes

## Run the simulation

# Time step size is in femtoseconds
timestep        $(v_TIMESTEP)
run             $(v_STEPS)

## Write restart data

write_data      write_*.data