### LAMMPS Input File - Remove specific atom types
# From MDToolkit template file: remove_atom_types.in

## Configuration Variables
# FILL IN {{FIELDS}}

# File name of the initial LAMMPS data file
variable    START_DATA string {{"file"}}

# Atom types to remove (space-separated integers, all inside quotes)
variable    TYPES_TO_REMOVE string {{"int1 int2 ... intN"}}

# Reset atom IDs?
variable    RESET_ATOM_IDS equal {{true/false}}

# Set this to true if you are resetting atom IDs using a version of LAMMPS older than 22Dec2022
# If you are not resetting atom IDs then this variable does not get used
variable    USE_OLD_RESET_COMMAND equal {{true/false}}

## Initialization

units           real
atom_style      full
boundary        p p p
pair_style      lj/cut/coul/long 10 10
pair_modify     mix arithmetic
pair_modify     tail no
special_bonds   amber
bond_style      harmonic
angle_style     harmonic
dihedral_style  opls
improper_style  none

## Read initial data file

read_data      	${START_DATA}

## Neighbor parameters and force field coefficients

neighbor        2.0 bin
neigh_modify    delay 0
kspace_style    pppm 1e-5
kspace_modify   order 4 

## Define group to be removed

group GROUP_TO_REMOVE type ${TYPES_TO_REMOVE}

## Delete atoms belonging to the the deletion group

delete_atoms group GROUP_TO_REMOVE

## Reset atom IDs if desired

if "${RESET_ATOM_IDS} && ${USE_OLD_RESET_COMMAND}" then "reset_atom_ids sort yes" &
elif "${RESET_ATOM_IDS}" then "reset_atoms id sort yes"

## Write resulting data file

write_data	types_removed.data