### LAMMPS Input File - Replicate single water molecule into a mass
# From MDToolkit template file: replicate.in

## Configuration Variables
# FILL IN {{FIELDS}}

# File name of the initial LAMMPS data file to replicate
variable        START_DATA string {{"file"}}

# Number of times to replicate the water molecule in each dimension
variable        NX equal {{int}}
variable        NY equal {{int}}
variable        NZ equal {{int}}

## Initialization

units           real
atom_style      full
boundary        p p p
pair_style      lj/cut/coul/long 10 10
pair_modify     mix arithmetic
pair_modify     tail no
special_bonds   amber
bond_style      harmonic
angle_style     harmonic
dihedral_style  opls
improper_style  none

## Read initial data file

read_data      	${START_DATA}

## Neighbor parameters and force field coefficients

neighbor        2.0 bin
neigh_modify    delay 0
kspace_style    pppm 1e-5
kspace_modify   order 4 

## Replication

replicate       $(v_NX) $(v_NY) $(v_NZ)

## Write resulting data file

write_data      replicated.data