### LAMMPS Input File - Resize simulation box zhi
# From MDToolkit template file: resize_zhi.in

## Configuration Variables
# FILL IN {{FIELDS}}

# File name of the initial LAMMPS data file
variable    START_DATA string {{"file"}}

# Change in zhi of the simulation box (atoms will be displaced the same amount)
variable    ZHI_DELTA equal {{float}}

## Initialization

units           real
atom_style      full
boundary        p p p
pair_style      lj/cut/coul/long 10 10
pair_modify     mix arithmetic
pair_modify     tail no
special_bonds   amber
bond_style      harmonic
angle_style     harmonic
dihedral_style  opls
improper_style  none

## Read initial data file

read_data      	${START_DATA}

## Neighbor parameters and force field coefficients

neighbor        2.0 bin
neigh_modify    delay 0
kspace_style    pppm 1e-5
kspace_modify   order 4 

# Move atoms along the Z axis

change_box all z delta 0.0 $(v_ZHI_DELTA)

## Write resulting data file

write_data	resized_zhi.data