### LAMMPS Input File - Resize simulation box using absolute (final) dimensions
# From MDToolkit template file: resize_box_final.in

## Configuration Variables
# FILL IN {{FIELDS}}

# File name of the initial LAMMPS data file
variable    START_DATA string {{"file"}}

# New dimensions of the simulation box
variable    XLO equal {{float}}
variable    XHI equal {{float}}
variable    YLO equal {{float}}
variable    YHI equal {{float}}
variable    ZLO equal {{float}}
variable    ZHI equal {{float}}

## Initialization

units           real
atom_style      full
boundary        p p p
pair_style      lj/cut/coul/long 10 10
pair_modify     mix arithmetic
pair_modify     tail no
special_bonds   amber
bond_style      harmonic
angle_style     harmonic
dihedral_style  opls
improper_style  none

## Read initial data file

read_data      	${START_DATA}

## Neighbor parameters and force field coefficients

neighbor        2.0 bin
neigh_modify    delay 0
kspace_style    pppm 1e-5
kspace_modify   order 4 

# Resize simulation box

change_box all x final $(v_XLO) $(v_XHI)
change_box all y final $(v_YLO) $(v_YHI)
change_box all z final $(v_ZLO) $(v_ZHI)

## Write resulting data file

write_data	resized_box.data