### LAMMPS Input File - Resize simulation box by scaling it up/down, and scaling all atom positions proportionally
# From MDToolkit template file: resize_box_scale.in

## Configuration Variables
# FILL IN {{FIELDS}}

# File name of the initial LAMMPS data file
variable    START_DATA string {{"file"}}

# Scale factors to change the dimensions of the simulation box
variable    SCALE_X equal {{float}}
variable    SCALE_Y equal {{float}}
variable    SCALE_Z equal {{float}}

## Initialization

units           real
atom_style      full
boundary        p p p
pair_style      lj/cut/coul/long 10 10
pair_modify     mix arithmetic
pair_modify     tail no
special_bonds   amber
bond_style      harmonic
angle_style     harmonic
dihedral_style  opls
improper_style  none

## Read initial data file

read_data      	${START_DATA}

## Neighbor parameters and force field coefficients

neighbor        2.0 bin
neigh_modify    delay 0
kspace_style    pppm 1e-5
kspace_modify   order 4 

# Resize simulation box

change_box all x scale $(v_SCALE_X) remap
change_box all y scale $(v_SCALE_Y) remap
change_box all z scale $(v_SCALE_Z) remap

## Write resulting data file

write_data	rescaled_box.data